p cnf 10 50
6 9 3 0
-2 8 4 0
1 4 5 0
5 8 1 0
-10 -1 -2 0
4 7 -5 0
1 4 10 0
5 1 -2 0
7 9 8 0
10 8 -7 0
1 8 7 0
4 8 -5 0
1 10 -6 0
3 10 9 0
1 -4 -5 0
2 9 -1 0
-9 -5 1 0
8 -9 -3 0
-2 4 7 0
-7 -4 -2 0
-5 10 4 0
3 2 -10 0
6 4 -8 0
7 -8 -4 0
-4 9 2 0
1 2 9 0
-1 10 -8 0
1 -4 -3 0
4 8 3 0
-7 8 3 0
-5 -8 2 0
4 8 5 0
-6 2 -9 0
5 -4 10 0
8 5 1 0
-9 1 -8 0
-4 2 5 0
-2 10 1 0
-2 7 -6 0
-10 -4 8 0
-9 5 1 0
10 3 8 0
-3 -1 2 0
10 -2 7 0
10 -9 1 0
-8 -7 -2 0
-9 -3 -10 0
-9 -10 -5 0
7 1 4 0
9 -5 -10 0
